set att := squat pieg traz plank hit corsa scatti;
set gesti := spinta tiro core gambe;

param lav_min :=
spinta	40
tiro	38
core	20
gambe	55;

param contrib: squat	pieg	traz	plank 	hit		corsa	scatti :=
spinta				0	 0.6  	0.05    0.05	0.4	  		0		0.1
tiro				0	 0.05	0.7		0		0.4			0		0
core				0.1	 0.05	0.05	0.5		0.1			0.05	0.2
gambe				0.6	 0.05	0		0.05	0.4			0.2		0.5;

param temp_min := 10;

param intens :=
squat 	14
pieg 	15
traz 	16
plank 	12
hit 	26
corsa 	5
scatti	16;